%BLOCK LATTICE_CART
1 0 0
0 1 0
0 0 15
#CFIX
%ENDBLOCK LATTICE_CART

#TARGVOL=50

#SLAB
#WIDTH=4.0
#SHIFT=7.5

#SPECIES=Si%NUM=1,O%NUM=2
#NFORM=4

#MINSEP=1.0 Si-Si=3.00 Si-O=1.60 O-O=2.58

#COMPACT
