%BLOCK LATTICE_CART
       1.908194408661965      -1.101696555507125       0.000000000000000
      -0.000000000000000       2.203393111014249       0.000000000000000
       0.000000000000000       0.000000000000000      35.964580000000005
#FIX
%ENDBLOCK LATTICE_CART

%BLOCK POSITIONS_FRAC
 Al   0.3333333333333333  -0.3333333333333333  0.3499999999999998 # Al1 
 Al   0.3333333333333333  -0.3333333333333333  0.4499999999999998 # Al2
 Al   0.0000000000000000   0.0000000000000000  0.2999999999999998 # Al3 
 Al   0.0000000000000000   0.0000000000000000  0.3999999999999999 # Al4
 Al   0.0000000000000000   0.0000000000000000  0.6000000000000000 # Al5 % NUM=1 ADATOM ZAMP=2.0
%ENDBLOCK POSITIONS_FRAC

FIX_ALL_CELL : true

#SUPERCELL=2 2 1
#SLAB
#POSAMP=0
#MINSEP=2.2
