#TARGVOL=7.69

%BLOCK POSITIONS_ABS
    C   0.86267   0.87843   0.69644 # 1-Td % NUM=1
    H  -0.15687   1.20067   0.63115 # 1-Td
    H   1.19106   0.93720   1.71422 # 1-Td
    H   0.93994  -0.13355   0.35439 # 1-Td
    H   1.47618   1.50890   0.08615 # 1-Td
%ENDBLOCK POSITIONS_ABS

#SYMMOPS=4
#SGRANK=20
#SLACK=0.25
#OVERLAP=1
##SYSTEM=Cubi
#MINSEP=1.0 C-C=2.10 C-H=1.45 H-H=1.00
