%BLOCK LATTICE_CART
1.709975 0 0
0 1.709975 0
0 0 1.709975
%ENDBLOCK LATTICE_CART
 
#VARVOL=5
 
%BLOCK POSITIONS_FRAC
C 0.0 0.0 0.0 # C1 % NUM=1
C 0.0 0.0 0.0 # C2 % NUM=1
%ENDBLOCK POSITIONS_FRAC
 
#MINSEP=1.3
 
KPOINTS_MP_SPACING 0.1
