%BLOCK LATTICE_ABC
5.0544 5.6199 6.9873
90 90 90
#FIX
%ENDBLOCK LATTICE_ABC

%BLOCK POSITIONS_ABS
    B   2.58544   4.77680   4.32147 # 1-D2h % NUM=2
    B   1.69796   8.00288   2.85360 # 1-D2h
    B   2.61373   3.77359   2.85525 # 1-D2h
    B   4.18411   4.06190   3.73764 # 1-D2h
    B   5.07510   5.33975   2.85470 # 1-D2h
    B   4.18329   4.06211   1.97364 # 1-D2h
    B   2.55309   6.53193   1.97357 # 1-D2h
    B   2.58485   4.77663   1.39006 # 1-D2h
    B   2.55305   6.53194   3.73757 # 1-D2h
    B   5.03988   2.59079   2.85345 # 1-D2h
    B   4.15056   5.81724   1.39010 # 1-D2h
    B   1.66210   5.25490   2.85543 # 1-D2h
    B   4.12347   6.82062   2.85477 # 1-D2h
    B   4.15140   5.81769   4.32009 # 1-D2h
%ENDBLOCK POSITIONS_ABS

#SLACK=0.25
#OVERLAP=0.1
#COMPACT
#MINSEP=1.64

KPOINTS_MP_SPACING 0.1

FIX_ALL_CELL : true

%BLOCK SPECIES_POT
B 2|1.6|7|7|9|20:21(qc=4)
%ENDBLOCK SPECIES_POT
