%BLOCK LATTICE_CART
2 0 0
0 2 0
0 0 2 
%ENDBLOCK LATTICE_CART
 
%BLOCK POSITIONS_FRAC
Al 0.0 0.0 0.0 # Al1 % NUM=8
%ENDBLOCK POSITIONS_FRAC

#MINSEP=1.5
