%BLOCK LATTICE_ABC
5.0544 5.6199 6.9873
90 90 90
#FIX
%ENDBLOCK LATTICE_ABC

#SPECIES=B
#NATOM=28
#MINSEP=1.7

KPOINTS_MP_SPACING 0.1

FIX_ALL_CELL : true

%BLOCK SPECIES_POT
B 2|1.6|7|7|9|20:21(qc=4)
%ENDBLOCK SPECIES_POT
