%BLOCK LATTICE_ABC
20 20 2.459512
90 90 90
#FIX
%ENDBLOCK LATTICE_ABC

%BLOCK POSITIONS_FRAC
A          0.7585900000000000   0.5817200000000000   0.5000000000000000 # A1  % POSAMP=0 FIX
A          0.7286300000000000   0.6458700000000001   0.5000000000000000 # A2  % POSAMP=0 FIX
A          0.6250599999999999   0.7406400000000000   0.5000000000000000 # A3  % POSAMP=0 FIX
A          0.5585200000000000   0.7648100000000000   0.5000000000000000 # A4  % POSAMP=0 FIX
A          0.2414100000000000   0.4182800000000000   0.5000000000000000 # A5  % POSAMP=0 FIX
A          0.2713700000000000   0.3541300000000000   0.5000000000000000 # A6  % POSAMP=0 FIX
A          0.3749400000000000   0.2593600000000000   0.5000000000000000 # A7  % POSAMP=0 FIX
A          0.4414800000000000   0.2351900000000000   0.5000000000000000 # A8  % POSAMP=0 FIX
A          0.4182800000000000   0.7585900000000000   0.5000000000000000 # A9  % POSAMP=0 FIX
A          0.3541300000000000   0.7286300000000000   0.5000000000000000 # A10 % POSAMP=0 FIX
A          0.2593600000000000   0.6250599999999999   0.5000000000000000 # A11 % POSAMP=0 FIX
A          0.2351900000000000   0.5585200000000000   0.5000000000000000 # A12 % POSAMP=0 FIX
A          0.5817200000000000   0.2414100000000000   0.5000000000000000 # A13 % POSAMP=0 FIX
A          0.6458700000000001   0.2713700000000000   0.5000000000000000 # A14 % POSAMP=0 FIX
A          0.7406400000000000   0.3749400000000000   0.5000000000000000 # A15 % POSAMP=0 FIX
A          0.7648100000000000   0.4414800000000000   0.5000000000000000 # A16 % POSAMP=0 FIX
A          0.7076300000000000   0.6744599999999999  -0.0000000000000000 # A17 % POSAMP=0 FIX
A          0.7670500000000000   0.5472700000000000  -0.0000000000000000 # A18 % POSAMP=0 FIX
A          0.6554000000000000   0.7222600000000000  -0.0000000000000000 # A19 % POSAMP=0 FIX
A          0.5234600000000000   0.7701800000000000  -0.0000000000000000 # A20 % POSAMP=0 FIX
A          0.2923700000000000   0.3255400000000000  -0.0000000000000000 # A21 % POSAMP=0 FIX
A          0.2329500000000000   0.4527300000000000  -0.0000000000000000 # A22 % POSAMP=0 FIX
A          0.3446000000000000   0.2777400000000000  -0.0000000000000000 # A23 % POSAMP=0 FIX
A          0.4765400000000000   0.2298200000000000  -0.0000000000000000 # A24 % POSAMP=0 FIX
A          0.3255400000000000   0.7076300000000000  -0.0000000000000000 # A25 % POSAMP=0 FIX
A          0.4527300000000000   0.7670500000000000  -0.0000000000000000 # A26 % POSAMP=0 FIX
A          0.2777400000000000   0.6554000000000000  -0.0000000000000000 # A27 % POSAMP=0 FIX
A          0.2298200000000000   0.5234600000000000  -0.0000000000000000 # A28 % POSAMP=0 FIX
A          0.6744599999999999   0.2923700000000000  -0.0000000000000000 # A29 % POSAMP=0 FIX
A          0.5472700000000000   0.2329500000000000  -0.0000000000000000 # A30 % POSAMP=0 FIX
A          0.7222600000000000   0.3446000000000000  -0.0000000000000000 # A31 % POSAMP=0 FIX
A          0.7701800000000000   0.4765400000000000  -0.0000000000000000 # A32 % POSAMP=0 FIX
B          0.5000000000000000   0.5000000000000000   0.5000000000000000 # B1 % NUM=24 ZAMP=-1 XAMP=5 YAMP=5 ADATOM
%ENDBLOCK POSITIONS_FRAC

#SUPERCELL=1 1 3

#SLACK=0.25
#OVERLAP=0.1
#MINSEP=1.0 A-A=1.3 B-B=2 A-B=2

FIX_ALL_CELL : true 
