%BLOCK LATTICE_CART
 13.0990000000000002   0.0000000000000212   0.0000000000000212
  0.0000000000000000  34.0322000000000031   0.0000000000000550
  0.0000000000000000   0.0000000000000000   5.3468000000000000
#FIX
%ENDBLOCK LATTICE_CART

%BLOCK POSITIONS_FRAC
A         0.1250000000000000   0.0138900000000000   0.5000000000000000 # A1  % POSAMP=0 NOMOVE
A         0.1250000000000000   0.1805600000000000   0.5000000000000000 # A2  % POSAMP=0 NOMOVE
A         0.1250000000000000   0.3472200000000000   0.5000000000000000 # A3  % POSAMP=0 NOMOVE
A         0.0000000000000000   0.9861100000000000   0.0000000000000000 # A4  % POSAMP=0 NOMOVE
A         0.0000000000000000   0.8194399999999999   0.0000000000000000 # A5  % POSAMP=0 NOMOVE
A         0.0000000000000000   0.6527800000000000   0.0000000000000000 # A6  % POSAMP=0 NOMOVE
A        -0.0000000000000000   0.0972200000000000   0.5000000000000000 # A7  % POSAMP=0 NOMOVE
A        -0.0000000000000000   0.2638900000000000   0.5000000000000000 # A8  % POSAMP=0 NOMOVE
A         0.1250000000000000   0.9027800000000000   0.0000000000000000 # A9  % POSAMP=0 NOMOVE
A         0.1250000000000000   0.7361100000000000   0.0000000000000000 # A10 % POSAMP=0 NOMOVE
A         0.1250000000000000   0.0694400000000000  -0.0000000000000000 # A11 % POSAMP=0 NOMOVE
A         0.1250000000000000   0.2361100000000000   0.0000000000000000 # A12 % POSAMP=0 NOMOVE
A         0.0000000000000000   0.9305600000000001   0.5000000000000000 # A13 % POSAMP=0 NOMOVE
A         0.0000000000000000   0.7638900000000000   0.5000000000000000 # A14 % POSAMP=0 NOMOVE
A        -0.0000000000000000   0.1527800000000000   0.0000000000000000 # A15 % POSAMP=0 NOMOVE
A        -0.0000000000000000   0.3194400000000000   0.0000000000000000 # A16 % POSAMP=0 NOMOVE
A         0.1250000000000000   0.8472200000000000   0.5000000000000000 # A17 % POSAMP=0 NOMOVE
A         0.1250000000000000   0.6805600000000001   0.5000000000000000 # A18 % POSAMP=0 NOMOVE
A         0.3750000000000000   0.0138900000000000   0.5000000000000000 # A19 % POSAMP=0 NOMOVE
A         0.3750000000000000   0.1805600000000000   0.5000000000000000 # A20 % POSAMP=0 NOMOVE
A         0.3750000000000000   0.3472200000000000   0.5000000000000000 # A21 % POSAMP=0 NOMOVE
A         0.2500000000000000   0.9861100000000000   0.0000000000000000 # A22 % POSAMP=0 NOMOVE
A         0.2500000000000000   0.8194399999999999   0.0000000000000000 # A23 % POSAMP=0 NOMOVE
A         0.2500000000000000   0.6527800000000000   0.0000000000000000 # A24 % POSAMP=0 NOMOVE
A         0.2500000000000000   0.0972200000000000   0.5000000000000000 # A25 % POSAMP=0 NOMOVE
A         0.2500000000000000   0.2638900000000000   0.5000000000000000 # A26 % POSAMP=0 NOMOVE
A         0.3750000000000000   0.9027800000000000   0.0000000000000000 # A27 % POSAMP=0 NOMOVE
A         0.3750000000000000   0.7361100000000000   0.0000000000000000 # A28 % POSAMP=0 NOMOVE
A         0.3750000000000000   0.0694400000000000  -0.0000000000000000 # A29 % POSAMP=0 NOMOVE
A         0.3750000000000000   0.2361100000000000   0.0000000000000000 # A30 % POSAMP=0 NOMOVE
A         0.2500000000000000   0.9305600000000001   0.5000000000000000 # A31 % POSAMP=0 NOMOVE
A         0.2500000000000000   0.7638900000000000   0.5000000000000000 # A32 % POSAMP=0 NOMOVE
A         0.2500000000000000   0.1527800000000000   0.0000000000000000 # A33 % POSAMP=0 NOMOVE
A         0.2500000000000000   0.3194400000000000   0.0000000000000000 # A34 % POSAMP=0 NOMOVE
A         0.3750000000000000   0.8472200000000000   0.5000000000000000 # A35 % POSAMP=0 NOMOVE
A         0.3750000000000000   0.6805600000000001   0.5000000000000000 # A36 % POSAMP=0 NOMOVE
A         0.6250000000000000   0.0138900000000000   0.5000000000000000 # A37 % POSAMP=0 NOMOVE
A         0.6250000000000000   0.1805600000000000   0.5000000000000000 # A38 % POSAMP=0 NOMOVE
A         0.6250000000000000   0.3472200000000000   0.5000000000000000 # A39 % POSAMP=0 NOMOVE
A         0.5000000000000000   0.9861100000000000   0.0000000000000000 # A40 % POSAMP=0 NOMOVE
A         0.5000000000000000   0.8194399999999999   0.0000000000000000 # A41 % POSAMP=0 NOMOVE
A         0.5000000000000000   0.6527800000000000   0.0000000000000000 # A42 % POSAMP=0 NOMOVE
A         0.5000000000000000   0.0972200000000000   0.5000000000000000 # A43 % POSAMP=0 NOMOVE
A         0.5000000000000000   0.2638900000000000   0.5000000000000000 # A44 % POSAMP=0 NOMOVE
A         0.6250000000000000   0.9027800000000000   0.0000000000000000 # A45 % POSAMP=0 NOMOVE
A         0.6250000000000000   0.7361100000000000   0.0000000000000000 # A46 % POSAMP=0 NOMOVE
A         0.6250000000000000   0.0694400000000000  -0.0000000000000000 # A47 % POSAMP=0 NOMOVE
A         0.6250000000000000   0.2361100000000000   0.0000000000000000 # A48 % POSAMP=0 NOMOVE
A         0.5000000000000000   0.9305600000000001   0.5000000000000000 # A49 % POSAMP=0 NOMOVE
A         0.5000000000000000   0.7638900000000000   0.5000000000000000 # A50 % POSAMP=0 NOMOVE
A         0.5000000000000000   0.1527800000000000   0.0000000000000000 # A51 % POSAMP=0 NOMOVE
A         0.5000000000000000   0.3194400000000000   0.0000000000000000 # A52 % POSAMP=0 NOMOVE
A         0.6250000000000000   0.8472200000000000   0.5000000000000000 # A53 % POSAMP=0 NOMOVE
A         0.6250000000000000   0.6805600000000001   0.5000000000000000 # A54 % POSAMP=0 NOMOVE
A         0.8750000000000000   0.0138900000000000   0.5000000000000000 # A55 % POSAMP=0 NOMOVE
A         0.8750000000000000   0.1805600000000000   0.5000000000000000 # A56 % POSAMP=0 NOMOVE
A         0.8750000000000000   0.3472200000000000   0.5000000000000000 # A57 % POSAMP=0 NOMOVE
A         0.7500000000000000   0.9861100000000000   0.0000000000000000 # A58 % POSAMP=0 NOMOVE
A         0.7500000000000000   0.8194399999999999   0.0000000000000000 # A59 % POSAMP=0 NOMOVE
A         0.7500000000000000   0.6527800000000000   0.0000000000000000 # A60 % POSAMP=0 NOMOVE
A         0.7500000000000000   0.0972200000000000   0.5000000000000000 # A61 % POSAMP=0 NOMOVE
A         0.7500000000000000   0.2638900000000000   0.5000000000000000 # A62 % POSAMP=0 NOMOVE
A         0.8750000000000000   0.9027800000000000   0.0000000000000000 # A63 % POSAMP=0 NOMOVE
A         0.8750000000000000   0.7361100000000000   0.0000000000000000 # A64 % POSAMP=0 NOMOVE
A         0.8750000000000000   0.0694400000000000   0.0000000000000000 # A65 % POSAMP=0 NOMOVE
A         0.8750000000000000   0.2361100000000000   0.0000000000000000 # A66 % POSAMP=0 NOMOVE
A         0.7500000000000000   0.9305600000000001   0.5000000000000000 # A67 % POSAMP=0 NOMOVE
A         0.7500000000000000   0.7638900000000000   0.5000000000000000 # A68 % POSAMP=0 NOMOVE
A         0.7500000000000000   0.1527800000000000   0.0000000000000000 # A69 % POSAMP=0 NOMOVE
A         0.7500000000000000   0.3194400000000000   0.0000000000000000 # A70 % POSAMP=0 NOMOVE
A         0.8750000000000000   0.8472200000000000   0.5000000000000000 # A71 % POSAMP=0 NOMOVE
A         0.8750000000000000   0.6805600000000001   0.5000000000000000 # A72 % POSAMP=0 NOMOVE
B         0.5000000000000000   0.5000000000000000   0.5000000000000000 # B1  % NUM=48 YAMP=10 ZAMP=-1 XAMP=-1
%ENDBLOCK POSITIONS_FRAC

#SLACK=0.25
#OVERLAP=0.1
#MINSEP=1.0 A-A=3 A-B=2.5 B-B=2

FIX_ALL_CELL : true
