%BLOCK LATTICE_CART
20 0 0
0 20 0
0 0 20
#FIX
%ENDBLOCK LATTICE_CART

#CLUSTER
#ELLIPSOID=2.5 0.75

#SPECIES=Si%NUM=1,O%NUM=2
#NFORM=4

#MINSEP=1.0 Si-Si=3.00 Si-O=1.60 O-O=2.58
