%BLOCK LATTICE_CART
 0.0    2.75    2.75
 2.75   0.0     2.75
 2.75   2.75    0.0
#FIX
%ENDBLOCK LATTICE_CART
 
%BLOCK POSITIONS_FRAC
Si 0.0 0.0 0.0 # Si1 % NUM=1
Si 0.0 0.0 0.0 # Si2 % NUM=1
%ENDBLOCK POSITIONS_FRAC
 
#MINSEP=2.0
