    SYSTEM  =  diamond Si
    ISTART  =  0
    ICHARG  =  2
     ENCUT  =  300
    ISMEAR  =  0
     SIGMA  =  0.1
       NSW  =  80
    IBRION  =  2
      ISIF  =  2
    EDIFFG  =  -1E-02
     EDIFF  =  1E-06
      PREC  =  Accurate
    LORBIT  =  11
    LCHARG  =  .FALSE.
     LWAVE  =  .FALSE.
      ALGO  =   FAST
LSCALAPACK  =  .FALSE.