    SYSTEM  =  diamond Si
    ISTART  =  0
    ICHARG  =  2
     ENCUT  =  250
    ISMEAR  =  0
     SIGMA  =  0.1
       NSW  =  50
    IBRION  =  2
      ISIF  =  2
    EDIFFG  =  -1E-02
     EDIFF  =  1E-05
      PREC  =  Normal
    LCHARG  =  .FALSE.
     LWAVE  =  .FALSE.
      ALGO  =   FAST
LSCALAPACK  =  .FALSE.