    SYSTEM  =  diamond Si
    ISTART  =  0
    ICHARG  =  2
     ENCUT  =  300
    ISMEAR  =  0
     SIGMA  =  0.1
       NSW  =  0
    IBRION  =  -1
      ISIF  =  2
    EDIFFG  =  -1E-02
     EDIFF  =  1E-07
      PREC  =  Accurate
    LCHARG  =  .FALSE.
     LWAVE  =  .FALSE.
      ALGO  =   FAST
LSCALAPACK  =  .FALSE.