%BLOCK LATTICE_CART
20 0 0
0 20 0
0 0 20
#FIX
%ENDBLOCK LATTICE_CART

%BLOCK POSITIONS_FRAC
C 0.0 0.0 0.0 # C1 % NUM=20
%ENDBLOCK POSITIONS_FRAC

#SYMMOPS=1
#NFORM=1

#SPHERE=2.1
#POSAMP=2.5

#CLUSTER

#MINSEP=1.44
#COORD=3
#MINBANGLE=91

FIX_ALL_CELL : true
