%BLOCK LATTICE_CART
20 0 0
0 20 0
0 0 20
#FIX
%ENDBLOCK LATTICE_CART
 
%BLOCK POSITIONS_FRAC
Al 0.0 0.0 0.0 # Al1 % NUM=38
%ENDBLOCK POSITIONS_FRAC

FIX_ALL_CELL : true

#MINSEP=1.5
#CLUSTER
#POSAMP=3.75
